40 304 5
0 2 1
0 4 1
0 5 1
0 7 1
0 8 1
0 10 1
0 11 1
0 13 1
0 16 1
0 17 1
0 20 1
0 21 1
0 23 1
0 24 1
0 27 1
0 31 1
0 34 1
0 37 1
1 5 1
1 8 1
1 16 1
1 17 1
1 19 1
1 20 1
1 22 1
1 26 1
1 32 1
1 34 1
1 36 1
1 38 1
2 8 1
2 17 1
2 18 1
2 20 1
2 22 1
2 26 1
2 27 1
2 28 1
2 29 1
2 31 1
2 38 1
3 6 1
3 7 1
3 8 1
3 9 1
3 10 1
3 14 1
3 26 1
3 33 1
3 34 1
3 39 1
4 5 1
4 6 1
4 13 1
4 16 1
4 18 1
4 22 1
4 24 1
4 28 1
4 30 1
4 33 1
4 36 1
4 38 1
4 39 1
5 6 1
5 12 1
5 13 1
5 16 1
5 18 1
5 25 1
5 26 1
5 27 1
5 29 1
5 31 1
5 33 1
5 38 1
5 39 1
6 20 1
6 21 1
6 22 1
6 24 1
6 25 1
6 26 1
6 27 1
6 32 1
6 34 1
7 8 1
7 10 1
7 11 1
7 15 1
7 16 1
7 17 1
7 21 1
7 26 1
7 30 1
7 32 1
7 34 1
7 37 1
7 38 1
8 12 1
8 16 1
8 17 1
8 19 1
8 30 1
8 31 1
8 33 1
8 34 1
8 36 1
9 24 1
9 25 1
9 26 1
9 27 1
9 30 1
9 33 1
9 34 1
9 35 1
9 36 1
10 11 1
10 12 1
10 13 1
10 14 1
10 16 1
10 17 1
10 18 1
10 21 1
10 22 1
10 25 1
10 26 1
10 27 1
10 28 1
10 30 1
10 31 1
10 32 1
10 37 1
10 39 1
11 12 1
11 13 1
11 19 1
11 20 1
11 21 1
11 24 1
11 26 1
11 29 1
11 32 1
11 34 1
11 39 1
12 13 1
12 14 1
12 18 1
12 21 1
12 25 1
12 30 1
12 31 1
12 36 1
13 15 1
13 16 1
13 19 1
13 22 1
13 23 1
13 30 1
13 33 1
13 37 1
14 15 1
14 16 1
14 18 1
14 21 1
14 26 1
14 27 1
14 29 1
14 30 1
14 31 1
14 32 1
14 37 1
14 38 1
14 39 1
15 18 1
15 24 1
15 25 1
15 27 1
15 29 1
15 30 1
15 32 1
15 33 1
15 39 1
16 17 1
16 19 1
16 21 1
16 22 1
16 26 1
16 28 1
16 29 1
16 33 1
16 39 1
17 21 1
17 25 1
17 26 1
17 30 1
17 31 1
17 33 1
17 35 1
17 37 1
18 19 1
18 20 1
18 21 1
18 25 1
18 28 1
18 29 1
18 32 1
18 37 1
18 38 1
18 39 1
19 20 1
19 21 1
19 24 1
19 27 1
19 28 1
19 31 1
19 33 1
19 34 1
19 37 1
19 39 1
20 21 1
20 26 1
20 27 1
20 29 1
20 31 1
20 32 1
20 39 1
21 22 1
21 23 1
21 24 1
21 27 1
21 29 1
21 31 1
21 32 1
21 35 1
21 38 1
22 23 1
22 26 1
22 31 1
22 33 1
22 34 1
22 35 1
22 36 1
22 37 1
22 39 1
23 24 1
23 25 1
23 26 1
23 28 1
23 30 1
23 31 1
23 32 1
23 36 1
23 37 1
23 38 1
24 26 1
24 27 1
24 28 1
25 27 1
25 31 1
25 32 1
25 34 1
25 35 1
25 37 1
25 38 1
26 29 1
26 32 1
26 33 1
26 37 1
27 31 1
27 33 1
27 38 1
27 39 1
28 30 1
28 35 1
28 36 1
28 38 1
28 39 1
29 31 1
29 34 1
29 35 1
29 36 1
29 37 1
29 38 1
29 39 1
30 32 1
30 33 1
30 34 1
30 36 1
31 32 1
31 38 1
32 33 1
32 34 1
33 34 1
33 35 1
33 36 1
33 39 1
34 35 1
34 36 1
34 39 1
35 36 1
37 39 1
38 39 1
5 14 28 36 39